projected/problems_b25_r0_d7_m100_s666/_DIMACS/b25_d7_r0_s666_085.cnf
p cnf 207 312 25
c p show 1 2 3 4 5 6 7 8 9 10 11 12 13 14 15 16 17 18 19 20 21 22 23 24 25
-41 -17 24 0
-42 8 0
-42 -5 0
-43 42 0
-43 41 0
-44 -7 0
-44 -16 0
-45 13 0
-45 -16 0
-46 45 44 0
-47 -13 16 0
-48 7 16 0
-49 48 47 0
-50 49 0
-50 46 0
-51 50 43 0
-52 -19 -17 0
-53 20 -18 0
-54 53 0
-54 52 0
-55 4 0
-56 -24 0
-56 -16 0
-57 56 0
-57 55 0
-58 57 0
-58 54 0
-59 58 0
-59 51 0
-60 -22 -10 0
-61 -9 -8 0
-62 61 60 0
-63 -20 -23 0
-64 23 20 0
-65 64 0
-65 63 0
-66 7 11 0
-67 66 65 0
-68 67 62 0
-69 24 -25 0
-70 -5 20 0
-71 70 69 0
-72 5 -18 0
-73 -3 23 0
-74 73 0
-74 72 0
-75 74 0
-75 71 0
-76 75 0
-76 68 0
-77 76 59 0
-78 6 5 0
-79 -2 0
-79 1 0
-80 79 0
-80 78 0
-81 23 0
-82 -23 0
-83 82 0
-83 81 0
-84 9 25 0
-85 84 83 0
-86 85 0
-86 80 0
-87 20 0
-87 15 0
-88 -25 6 0
-89 88 87 0
-90 -20 -7 0
-91 25 22 0
-92 91 90 0
-93 92 89 0
-94 20 0
-94 7 0
-95 -25 0
-95 -22 0
-96 95 0
-96 94 0
-97 -20 -15 0
-98 25 0
-98 -6 0
-99 98 0
-99 97 0
-100 99 96 0
-101 100 0
-101 93 0
-102 101 0
-102 86 0
-103 25 0
-103 16 0
-104 9 -8 0
-105 104 103 0
-106 -19 -7 0
-107 -12 -11 0
-108 107 106 0
-109 108 0
-109 105 0
-110 -21 -16 0
-111 7 4 0
-112 111 110 0
-113 17 16 0
-114 -25 0
-114 -23 0
-115 114 0
-115 113 0
-116 115 112 0
-117 116 109 0
-118 117 0
-118 102 0
-119 118 0
-119 77 0
-120 -7 3 0
-121 -8 -17 0
-122 121 0
-122 120 0
-123 -2 0
-123 -14 0
-124 3 -19 0
-125 124 123 0
-126 125 0
-126 122 0
-127 11 -11 0
-128 24 2 0
-129 128 127 0
-130 23 -22 0
-131 -2 -20 0
-132 131 130 0
-133 132 0
-133 129 0
-134 133 0
-134 126 0
-135 -11 0
-135 11 0
-136 -24 0
-136 -2 0
-137 136 0
-137 135 0
-138 -23 0
-138 22 0
-139 2 0
-139 20 0
-140 139 0
-140 138 0
-141 140 137 0
-142 7 0
-142 -3 0
-143 8 0
-143 17 0
-144 143 142 0
-145 2 14 0
-146 -3 0
-146 19 0
-147 146 0
-147 145 0
-148 147 144 0
-149 148 0
-149 141 0
-150 149 134 0
-151 -4 11 0
-152 -24 0
-152 -23 0
-153 152 151 0
-154 15 0
-154 -7 0
-155 -22 0
-155 8 0
-156 155 154 0
-157 156 0
-157 153 0
-158 -15 -20 0
-159 24 -15 0
-160 15 -24 0
-161 160 0
-161 159 0
-162 161 0
-162 158 0
-163 14 0
-163 12 0
-164 -12 0
-164 -14 0
-165 164 163 0
-166 10 0
-166 5 0
-167 166 165 0
-168 167 0
-168 162 0
-169 168 0
-169 157 0
-170 169 150 0
-171 -5 0
-171 -25 0
-172 -18 12 0
-173 172 0
-173 171 0
-174 18 0
-174 -12 0
-175 5 25 0
-176 175 0
-176 174 0
-177 176 173 0
-178 -12 9 0
-179 7 0
-179 -1 0
-180 179 0
-180 178 0
-181 180 177 0
-182 19 0
-182 -22 0
-183 -21 21 0
-184 183 0
-184 182 0
-185 14 0
-185 1 0
-186 16 0
-186 -1 0
-187 186 0
-187 185 0
-188 187 0
-188 184 0
-189 188 181 0
-190 -18 0
-190 1 0
-191 -25 0
-191 6 0
-192 191 190 0
-193 -1 0
-193 -5 0
-194 -6 -20 0
-195 194 193 0
-196 195 192 0
-197 -14 15 0
-198 9 3 0
-199 198 197 0
-200 -9 0
-200 -3 0
-201 14 0
-201 -15 0
-202 201 200 0
-203 202 0
-203 199 0
-204 17 0
-204 14 0
-205 14 0
-205 -21 0
-206 21 0
-206 -14 0
-207 206 205 0
-26 207 0
-26 204 0
-27 26 0
-27 203 0
-28 -17 -14 0
-31 -14 21 0
-35 -21 14 0
-36 35 0
-36 31 0
-37 36 28 0
-38 200 0
-38 201 0
-39 197 0
-39 198 0
-40 39 38 0
-29 40 0
-29 37 0
-30 29 27 0
-32 30 0
-32 196 0
-33 32 189 0
-34 33 170 0
34 0
119 0
-47 -45 0
-44 -48 0
-94 -90 0
-90 -94 0
-91 -95 0
-92 -96 0
-96 -92 0
-87 -97 0
-97 -87 0
-98 -88 0
-99 -89 0
-89 -99 0
-127 -135 0
-128 -136 0
-129 -137 0
-130 -138 0
-131 -139 0
-132 -140 0
-133 -141 0
-142 -120 0
-143 -121 0
-144 -122 0
-123 -145 0
-124 -146 0
-125 -147 0
-147 -125 0
-148 -126 0
-174 -172 0
-172 -174 0
-171 -175 0
-175 -171 0
-28 -204 0
-204 -28 0
-36 -207 0
-207 -36 0
-26 -37 0
-198 -200 0
-200 -198 0
-197 -201 0
-203 -40 0
-40 -203 0
