projected/problems_b25_r0_d7_m100_s666/b25_d7_r0_s666_085.smt2
(set-logic QF_UF)
(declare-fun A0 () Bool)
(declare-fun A1 () Bool)
(declare-fun A2 () Bool)
(declare-fun A3 () Bool)
(declare-fun A4 () Bool)
(declare-fun A5 () Bool)
(declare-fun A6 () Bool)
(declare-fun A7 () Bool)
(declare-fun A8 () Bool)
(declare-fun A9 () Bool)
(declare-fun A10 () Bool)
(declare-fun A11 () Bool)
(declare-fun A12 () Bool)
(declare-fun A13 () Bool)
(declare-fun A14 () Bool)
(declare-fun A15 () Bool)
(declare-fun A16 () Bool)
(declare-fun A17 () Bool)
(declare-fun A18 () Bool)
(declare-fun A19 () Bool)
(declare-fun A20 () Bool)
(declare-fun A21 () Bool)
(declare-fun A22 () Bool)
(declare-fun A23 () Bool)
(declare-fun A24 () Bool)
(assert (let ((.def_0 (not A23))) (let ((.def_1 (and A16 .def_0))) (let ((.def_2 (not .def_1))) (let ((.def_3 (not A7))) (let ((.def_4 (or .def_3 A4))) (let ((.def_5 (not .def_4))) (let ((.def_6 (and .def_5 .def_2))) (let ((.def_7 (not A12))) (let ((.def_8 (or .def_7 A15))) (let ((.def_9 (not A15))) (let ((.def_10 (not A6))) (let ((.def_11 (and .def_10 .def_9))) (let ((.def_12 (= .def_11 .def_8))) (let ((.def_13 (or .def_12 .def_6))) (let ((.def_14 (not .def_13))) (let ((.def_15 (not A16))) (let ((.def_16 (not A18))) (let ((.def_17 (or .def_16 .def_15))) (let ((.def_18 (not A19))) (let ((.def_19 (and .def_18 A17))) (let ((.def_20 (not .def_19))) (let ((.def_21 (and .def_20 .def_17))) (let ((.def_22 (not .def_21))) (let ((.def_23 (not A3))) (let ((.def_24 (or .def_23 .def_23))) (let ((.def_25 (not .def_24))) (let ((.def_26 (or A23 A15))) (let ((.def_27 (not .def_26))) (let ((.def_28 (and .def_27 .def_25))) (let ((.def_29 (not .def_28))) (let ((.def_30 (or .def_29 .def_22))) (let ((.def_31 (or .def_30 .def_14))) (let ((.def_32 (not A9))) (let ((.def_33 (not A21))) (let ((.def_34 (or .def_33 .def_32))) (let ((.def_35 (not .def_34))) (let ((.def_36 (and A8 A7))) (let ((.def_37 (and .def_36 .def_35))) (let ((.def_38 (not A22))) (let ((.def_39 (= .def_38 A19))) (let ((.def_40 (or A6 A10))) (let ((.def_41 (or .def_40 .def_39))) (let ((.def_42 (not .def_41))) (let ((.def_43 (and .def_42 .def_37))) (let ((.def_44 (not .def_43))) (let ((.def_45 (not A24))) (let ((.def_46 (or A23 .def_45))) (let ((.def_47 (not A4))) (let ((.def_48 (or .def_47 A19))) (let ((.def_49 (or .def_48 .def_46))) (let ((.def_50 (not A17))) (let ((.def_51 (or A4 .def_50))) (let ((.def_52 (not A2))) (let ((.def_53 (or .def_52 A22))) (let ((.def_54 (and .def_53 .def_51))) (let ((.def_55 (and .def_54 .def_49))) (let ((.def_56 (and .def_55 .def_44))) (let ((.def_57 (not .def_56))) (let ((.def_58 (and .def_57 .def_31))) (let ((.def_59 (not A5))) (let ((.def_60 (and .def_59 .def_47))) (let ((.def_61 (not .def_60))) (let ((.def_62 (not A0))) (let ((.def_63 (or A1 .def_62))) (let ((.def_64 (not .def_63))) (let ((.def_65 (and .def_64 .def_61))) (let ((.def_66 (= A22 .def_38))) (let ((.def_67 (not .def_66))) (let ((.def_68 (or A8 A24))) (let ((.def_69 (not .def_68))) (let ((.def_70 (and .def_69 .def_67))) (let ((.def_71 (not .def_70))) (let ((.def_72 (and .def_71 .def_65))) (let ((.def_73 (not .def_72))) (let ((.def_74 (and A19 A6))) (let ((.def_75 (not .def_74))) (let ((.def_76 (or A24 A21))) (let ((.def_77 (or .def_76 .def_75))) (let ((.def_78 (not .def_77))) (let ((.def_79 (and A19 A14))) (let ((.def_80 (not .def_79))) (let ((.def_81 (and A24 .def_59))) (let ((.def_82 (and .def_81 .def_80))) (let ((.def_83 (not .def_82))) (let ((.def_84 (= .def_83 .def_78))) (let ((.def_85 (not .def_84))) (let ((.def_86 (or .def_85 .def_73))) (let ((.def_87 (not .def_86))) (let ((.def_88 (or .def_45 .def_9))) (let ((.def_89 (or A8 .def_3))) (let ((.def_90 (not .def_89))) (let ((.def_91 (and .def_90 .def_88))) (let ((.def_92 (or .def_16 .def_10))) (let ((.def_93 (not .def_92))) (let ((.def_94 (not A10))) (let ((.def_95 (not A11))) (let ((.def_96 (or .def_95 .def_94))) (let ((.def_97 (not .def_96))) (let ((.def_98 (and .def_97 .def_93))) (let ((.def_99 (or .def_98 .def_91))) (let ((.def_100 (not .def_99))) (let ((.def_101 (not A20))) (let ((.def_102 (or .def_101 .def_9))) (let ((.def_103 (or A6 A3))) (let ((.def_104 (or .def_103 .def_102))) (let ((.def_105 (not .def_104))) (let ((.def_106 (or A16 A15))) (let ((.def_107 (not .def_106))) (let ((.def_108 (and .def_45 .def_38))) (let ((.def_109 (not .def_108))) (let ((.def_110 (or .def_109 .def_107))) (let ((.def_111 (and .def_110 .def_105))) (let ((.def_112 (not .def_111))) (let ((.def_113 (or .def_112 .def_100))) (let ((.def_114 (and .def_113 .def_87))) (let ((.def_115 (not .def_114))) (let ((.def_116 (or .def_115 .def_58))) (let ((.def_117 (or A10 .def_94))) (let ((.def_118 (or A23 A1))) (let ((.def_119 (or .def_118 .def_117))) (let ((.def_120 (or A22 .def_33))) (let ((.def_121 (not A1))) (let ((.def_122 (or .def_121 .def_18))) (let ((.def_123 (or .def_122 .def_120))) (let ((.def_124 (and .def_123 .def_119))) (let ((.def_125 (and A6 .def_52))) (let ((.def_126 (and A7 A16))) (let ((.def_127 (or .def_126 .def_125))) (let ((.def_128 (not A13))) (let ((.def_129 (and .def_121 .def_128))) (let ((.def_130 (or A2 .def_16))) (let ((.def_131 (or .def_130 .def_129))) (let ((.def_132 (not .def_131))) (let ((.def_133 (or .def_132 .def_127))) (let ((.def_134 (= .def_133 .def_124))) (let ((.def_135 (not .def_134))) (let ((.def_136 (or .def_23 A10))) (let ((.def_137 (not .def_136))) (let ((.def_138 (or A23 A22))) (let ((.def_139 (and .def_138 .def_137))) (let ((.def_140 (and A14 .def_10))) (let ((.def_141 (and .def_33 A7))) (let ((.def_142 (or .def_141 .def_140))) (let ((.def_143 (not .def_142))) (let ((.def_144 (or .def_143 .def_139))) (let ((.def_145 (not .def_144))) (let ((.def_146 (and A14 A19))) (let ((.def_147 (not A14))) (let ((.def_148 (= .def_147 .def_0))) (let ((.def_149 (not .def_148))) (let ((.def_150 (or .def_149 .def_146))) (let ((.def_151 (= .def_95 A13))) (let ((.def_152 (not .def_151))) (let ((.def_153 (and A9 A4))) (let ((.def_154 (or .def_153 .def_152))) (let ((.def_155 (not .def_154))) (let ((.def_156 (or .def_155 .def_150))) (let ((.def_157 (not .def_156))) (let ((.def_158 (and .def_157 .def_145))) (let ((.def_159 (or .def_158 .def_135))) (let ((.def_160 (and A17 .def_95))) (let ((.def_161 (not .def_160))) (let ((.def_162 (and .def_47 .def_45))) (let ((.def_163 (not .def_162))) (let ((.def_164 (= .def_163 .def_161))) (let ((.def_165 (not .def_164))) (let ((.def_166 (not A8))) (let ((.def_167 (and A11 .def_166))) (let ((.def_168 (not .def_167))) (let ((.def_169 (or .def_10 A0))) (let ((.def_170 (not .def_169))) (let ((.def_171 (and .def_170 .def_168))) (let ((.def_172 (or .def_171 .def_165))) (let ((.def_173 (and A18 .def_33))) (let ((.def_174 (not .def_173))) (let ((.def_175 (or .def_101 A20))) (let ((.def_176 (not .def_175))) (let ((.def_177 (or .def_176 .def_174))) (let ((.def_178 (and A13 A0))) (let ((.def_179 (and A15 .def_62))) (let ((.def_180 (and .def_179 .def_178))) (let ((.def_181 (not .def_180))) (let ((.def_182 (or .def_181 .def_177))) (let ((.def_183 (not .def_182))) (let ((.def_184 (or .def_183 .def_172))) (let ((.def_185 (or A17 .def_62))) (let ((.def_186 (not .def_185))) (let ((.def_187 (and .def_45 A5))) (let ((.def_188 (or .def_187 .def_186))) (let ((.def_189 (not .def_188))) (let ((.def_190 (or A0 A4))) (let ((.def_191 (not .def_190))) (let ((.def_192 (or .def_59 .def_18))) (let ((.def_193 (or .def_192 .def_191))) (let ((.def_194 (not .def_193))) (let ((.def_195 (and .def_194 .def_189))) (let ((.def_196 (or .def_15 .def_128))) (let ((.def_197 (not .def_196))) (let ((.def_198 (= A20 A13))) (let ((.def_199 (not .def_198))) (let ((.def_200 (and .def_199 .def_197))) (let ((.def_201 (or A8 A2))) (let ((.def_202 (not .def_201))) (let ((.def_203 (or .def_128 A14))) (let ((.def_204 (= .def_203 .def_202))) (let ((.def_205 (not .def_204))) (let ((.def_206 (= .def_205 .def_200))) (let ((.def_207 (or .def_206 .def_195))) (let ((.def_208 (not .def_207))) (let ((.def_209 (or .def_208 .def_184))) (let ((.def_210 (or .def_209 .def_159))) (let ((.def_211 (not .def_210))) (let ((.def_212 (or .def_211 .def_116))) (let ((.def_213 (not .def_212))) .def_213)))))))))))))))))))))))))))))))))))))))))))))))))))))))))))))))))))))))))))))))))))))))))))))))))))))))))))))))))))))))))))))))))))))))))))))))))))))))))))))))))))))))))))))))))))))))))))))))))))))))))))))))))))))))
(check-sat)
